NAME : LPS-n12-m101
COMMENT : (Lartu-Peter-Santi Plot, instance 3701 out of 39200. 12 customers.)
TYPE : CVRP
DIMENSION : 12
EDGE_WEIGHT_TYPE : EUC_2D
CAPACITY : 80
NODE_COORD_SECTION
 1 78 18
 2 60 34
 3 72 31
 4 97 52
 5 23 50
 6 70 95
 7 49 17
 8 92 5
 9 29 26
 10 61 27
 11 22 48
 12 11 24
DEMAND_SECTION
1 0
2 77
3 12
4 35
5 64
6 64
7 66
8 75
9 29
10 16
11 33
12 9
DEPOT_SECTION
 1
 -1
EOF
